(declare-const in128 Int)
(declare-const in129 Int)
(declare-const in126 Int)
(declare-const in127 Int)
(declare-const in121 Int)
(declare-const in124 Int)
(declare-const in21 Int)
(declare-const in125 Int)
(declare-const in122 Int)
(declare-const in123 Int)
(declare-const in117 Int)
(declare-const in118 Int)
(declare-const in115 Int)
(declare-const in116 Int)
(declare-const in119 Int)
(declare-const in95 Int)
(declare-const in94 Int)
(declare-const in97 Int)
(declare-const in96 Int)
(declare-const in113 Int)
(declare-const in98 Int)
(declare-const in114 Int)
(declare-const in111 Int)
(declare-const in1311 Int)
(declare-const in112 Int)
(declare-const in1310 Int)
(declare-const in1312 Int)
(declare-const in106 Int)
(declare-const in107 Int)
(declare-const in104 Int)
(declare-const in105 Int)
(declare-const in108 Int)
(declare-const in109 Int)
(declare-const in42 Int)
(declare-const in41 Int)
(declare-const in102 Int)
(declare-const in43 Int)
(declare-const in103 Int)
(declare-const in101 Int)
(declare-const in31 Int)
(declare-const in32 Int)
(declare-const in1410 Int)
(declare-const in1413 Int)
(declare-const in1411 Int)
(declare-const in1412 Int)
(declare-const in71 Int)
(declare-const in62 Int)
(declare-const in164 Int)
(declare-const in61 Int)
(declare-const in165 Int)
(declare-const in64 Int)
(declare-const in162 Int)
(declare-const in63 Int)
(declare-const in163 Int)
(declare-const in168 Int)
(declare-const in65 Int)
(declare-const in169 Int)
(declare-const in166 Int)
(declare-const in167 Int)
(declare-const in161 Int)
(declare-const in159 Int)
(declare-const in51 Int)
(declare-const in153 Int)
(declare-const in154 Int)
(declare-const in53 Int)
(declare-const in151 Int)
(declare-const in52 Int)
(declare-const in152 Int)
(declare-const in157 Int)
(declare-const in54 Int)
(declare-const in1110 Int)
(declare-const in158 Int)
(declare-const in155 Int)
(declare-const in156 Int)
(declare-const in1512 Int)
(declare-const in1513 Int)
(declare-const in1510 Int)
(declare-const in1511 Int)
(declare-const in1514 Int)
(declare-const in148 Int)
(declare-const in149 Int)
(declare-const in91 Int)
(declare-const in93 Int)
(declare-const in92 Int)
(declare-const in84 Int)
(declare-const in142 Int)
(declare-const in83 Int)
(declare-const in143 Int)
(declare-const in86 Int)
(declare-const in85 Int)
(declare-const in141 Int)
(declare-const in146 Int)
(declare-const in87 Int)
(declare-const in147 Int)
(declare-const in144 Int)
(declare-const in02 Int)
(declare-const in145 Int)
(declare-const in01 Int)
(declare-const in04 Int)
(declare-const in03 Int)
(declare-const in06 Int)
(declare-const in05 Int)
(declare-const in08 Int)
(declare-const in07 Int)
(declare-const in09 Int)
(declare-const in139 Int)
(declare-const in016 Int)
(declare-const in137 Int)
(declare-const in138 Int)
(declare-const in82 Int)
(declare-const in81 Int)
(declare-const in73 Int)
(declare-const in131 Int)
(declare-const in010 Int)
(declare-const in72 Int)
(declare-const in132 Int)
(declare-const in011 Int)
(declare-const in75 Int)
(declare-const in74 Int)
(declare-const in1210 Int)
(declare-const in135 Int)
(declare-const in014 Int)
(declare-const in76 Int)
(declare-const in136 Int)
(declare-const in015 Int)
(declare-const in133 Int)
(declare-const in012 Int)
(declare-const in1211 Int)
(declare-const in134 Int)
(declare-const in013 Int)
(declare-const in1611 Int)
(declare-const in1612 Int)
(declare-const in1610 Int)
(declare-const in1615 Int)
(declare-const in1613 Int)
(declare-const in1614 Int)

(assert (and (and (and (and (and (and (and (and (and (and (and (and (and (and (and (and (and (and (and (and (and (and (and (and (and (and (and (and (and (and (and (and (and (and (and (and (and (and (and (and (and (and (and (and (and (and (and (and (and (and (and (and (and (and (and (and (and (and (and (and (and (and (and (and (and (and (and (and (and (and (and (and (and (and (and (and (and (and (and (and (and (and (and (and (and (and (and (and (and (and (and (and (and (and (and (and (and (and (and (and (and (and (and (and (and (and (and (and (and (and (and (and (and (and (and (and (and (and (and (and (and (and (and (and (and (and (and (and (and (and (and (and (and (and (and (and (and (and (and (and (and (and (and (and (and (and (and (and (and (and (and (and (and (and (and (and (and (and (and (and (and (and (and (and (and (and (and (and (and (and (and (and (and (and (and (and (and (and (and (and (and (and (and (and (and (and (and (and (and (and (and (and (and (and (and (and (and (and (and (and (and (and (and (and (and (and (and (and (and (and (and (and (and (and (and (and (and (and (and (and (and (and (and (and (and (and (and (and (and (and (and (and (and (and (and (and (and (and (and  ( <  in02 in01)  ( <  in03 in02))  ( <  in04 in03))  ( <  in05 in04))  ( <  in06 in05))  ( <  in07 in06))  ( <  in08 in07))  ( <  in09 in08))  ( <  in010 in09))  ( <  in011 in010))  ( <  in012 in011))  ( <  in013 in012))  ( <  in014 in013))  ( <  in015 in014))  ( <  in016 in015))  ( <  ( +  in161 in016) in01))  ( <  ( +  in162 in016) in02))  ( <  ( +  in163 in016) in03))  ( <  ( +  in164 in016) in04))  ( <  ( +  in165 in016) in05))  ( <  ( +  in166 in016) in06))  ( <  ( +  in167 in016) in07))  ( <  ( +  in168 in016) in08))  ( <  ( +  in169 in016) in09))  ( <  ( +  in1610 in016) in010))  ( <  ( +  in1611 in016) in011))  ( <  ( +  in1612 in016) in012))  ( <  ( +  in1613 in016) in013))  ( <  ( +  in1614 in016) in014))  ( <  ( +  in1615 in016) in015))  ( <  ( +  in162 in016) ( +  in161 in016)))  ( <  ( +  in163 in016) ( +  in162 in016)))  ( <  ( +  in164 in016) ( +  in163 in016)))  ( <  ( +  in165 in016) ( +  in164 in016)))  ( <  ( +  in166 in016) ( +  in165 in016)))  ( <  ( +  in167 in016) ( +  in166 in016)))  ( <  ( +  in168 in016) ( +  in167 in016)))  ( <  ( +  in169 in016) ( +  in168 in016)))  ( <  ( +  in1610 in016) ( +  in169 in016)))  ( <  ( +  in1611 in016) ( +  in1610 in016)))  ( <  ( +  in1612 in016) ( +  in1611 in016)))  ( <  ( +  in1613 in016) ( +  in1612 in016)))  ( <  ( +  in1614 in016) ( +  in1613 in016)))  ( <  ( +  in1615 in016) ( +  in1614 in016)))  ( <  ( +  in151 ( +  in1615 in016)) ( +  in161 in016)))  ( <  ( +  in152 ( +  in1615 in016)) ( +  in162 in016)))  ( <  ( +  in153 ( +  in1615 in016)) ( +  in163 in016)))  ( <  ( +  in154 ( +  in1615 in016)) ( +  in164 in016)))  ( <  ( +  in155 ( +  in1615 in016)) ( +  in165 in016)))  ( <  ( +  in156 ( +  in1615 in016)) ( +  in166 in016)))  ( <  ( +  in157 ( +  in1615 in016)) ( +  in167 in016)))  ( <  ( +  in158 ( +  in1615 in016)) ( +  in168 in016)))  ( <  ( +  in159 ( +  in1615 in016)) ( +  in169 in016)))  ( <  ( +  in1510 ( +  in1615 in016)) ( +  in1610 in016)))  ( <  ( +  in1511 ( +  in1615 in016)) ( +  in1611 in016)))  ( <  ( +  in1512 ( +  in1615 in016)) ( +  in1612 in016)))  ( <  ( +  in1513 ( +  in1615 in016)) ( +  in1613 in016)))  ( <  ( +  in1514 ( +  in1615 in016)) ( +  in1614 in016)))  ( <  ( +  in152 ( +  in1615 in016)) ( +  in151 ( +  in1615 in016))))  ( <  ( +  in153 ( +  in1615 in016)) ( +  in152 ( +  in1615 in016))))  ( <  ( +  in154 ( +  in1615 in016)) ( +  in153 ( +  in1615 in016))))  ( <  ( +  in155 ( +  in1615 in016)) ( +  in154 ( +  in1615 in016))))  ( <  ( +  in156 ( +  in1615 in016)) ( +  in155 ( +  in1615 in016))))  ( <  ( +  in157 ( +  in1615 in016)) ( +  in156 ( +  in1615 in016))))  ( <  ( +  in158 ( +  in1615 in016)) ( +  in157 ( +  in1615 in016))))  ( <  ( +  in159 ( +  in1615 in016)) ( +  in158 ( +  in1615 in016))))  ( <  ( +  in1510 ( +  in1615 in016)) ( +  in159 ( +  in1615 in016))))  ( <  ( +  in1511 ( +  in1615 in016)) ( +  in1510 ( +  in1615 in016))))  ( <  ( +  in1512 ( +  in1615 in016)) ( +  in1511 ( +  in1615 in016))))  ( <  ( +  in1513 ( +  in1615 in016)) ( +  in1512 ( +  in1615 in016))))  ( <  ( +  in1514 ( +  in1615 in016)) ( +  in1513 ( +  in1615 in016))))  ( <  ( +  in141 ( +  in1514 ( +  in1615 in016))) ( +  in151 ( +  in1615 in016))))  ( <  ( +  in142 ( +  in1514 ( +  in1615 in016))) ( +  in152 ( +  in1615 in016))))  ( <  ( +  in143 ( +  in1514 ( +  in1615 in016))) ( +  in153 ( +  in1615 in016))))  ( <  ( +  in144 ( +  in1514 ( +  in1615 in016))) ( +  in154 ( +  in1615 in016))))  ( <  ( +  in145 ( +  in1514 ( +  in1615 in016))) ( +  in155 ( +  in1615 in016))))  ( <  ( +  in146 ( +  in1514 ( +  in1615 in016))) ( +  in156 ( +  in1615 in016))))  ( <  ( +  in147 ( +  in1514 ( +  in1615 in016))) ( +  in157 ( +  in1615 in016))))  ( <  ( +  in148 ( +  in1514 ( +  in1615 in016))) ( +  in158 ( +  in1615 in016))))  ( <  ( +  in149 ( +  in1514 ( +  in1615 in016))) ( +  in159 ( +  in1615 in016))))  ( <  ( +  in1410 ( +  in1514 ( +  in1615 in016))) ( +  in1510 ( +  in1615 in016))))  ( <  ( +  in1411 ( +  in1514 ( +  in1615 in016))) ( +  in1511 ( +  in1615 in016))))  ( <  ( +  in1412 ( +  in1514 ( +  in1615 in016))) ( +  in1512 ( +  in1615 in016))))  ( <  ( +  in1413 ( +  in1514 ( +  in1615 in016))) ( +  in1513 ( +  in1615 in016))))  ( <  ( +  in142 ( +  in1514 ( +  in1615 in016))) ( +  in141 ( +  in1514 ( +  in1615 in016)))))  ( <  ( +  in143 ( +  in1514 ( +  in1615 in016))) ( +  in142 ( +  in1514 ( +  in1615 in016)))))  ( <  ( +  in144 ( +  in1514 ( +  in1615 in016))) ( +  in143 ( +  in1514 ( +  in1615 in016)))))  ( <  ( +  in145 ( +  in1514 ( +  in1615 in016))) ( +  in144 ( +  in1514 ( +  in1615 in016)))))  ( <  ( +  in146 ( +  in1514 ( +  in1615 in016))) ( +  in145 ( +  in1514 ( +  in1615 in016)))))  ( <  ( +  in147 ( +  in1514 ( +  in1615 in016))) ( +  in146 ( +  in1514 ( +  in1615 in016)))))  ( <  ( +  in148 ( +  in1514 ( +  in1615 in016))) ( +  in147 ( +  in1514 ( +  in1615 in016)))))  ( <  ( +  in149 ( +  in1514 ( +  in1615 in016))) ( +  in148 ( +  in1514 ( +  in1615 in016)))))  ( <  ( +  in1410 ( +  in1514 ( +  in1615 in016))) ( +  in149 ( +  in1514 ( +  in1615 in016)))))  ( <  ( +  in1411 ( +  in1514 ( +  in1615 in016))) ( +  in1410 ( +  in1514 ( +  in1615 in016)))))  ( <  ( +  in1412 ( +  in1514 ( +  in1615 in016))) ( +  in1411 ( +  in1514 ( +  in1615 in016)))))  ( <  ( +  in1413 ( +  in1514 ( +  in1615 in016))) ( +  in1412 ( +  in1514 ( +  in1615 in016)))))  ( <  ( +  in131 ( +  in1413 ( +  in1514 ( +  in1615 in016)))) ( +  in141 ( +  in1514 ( +  in1615 in016)))))  ( <  ( +  in132 ( +  in1413 ( +  in1514 ( +  in1615 in016)))) ( +  in142 ( +  in1514 ( +  in1615 in016)))))  ( <  ( +  in133 ( +  in1413 ( +  in1514 ( +  in1615 in016)))) ( +  in143 ( +  in1514 ( +  in1615 in016)))))  ( <  ( +  in134 ( +  in1413 ( +  in1514 ( +  in1615 in016)))) ( +  in144 ( +  in1514 ( +  in1615 in016)))))  ( <  ( +  in135 ( +  in1413 ( +  in1514 ( +  in1615 in016)))) ( +  in145 ( +  in1514 ( +  in1615 in016)))))  ( <  ( +  in136 ( +  in1413 ( +  in1514 ( +  in1615 in016)))) ( +  in146 ( +  in1514 ( +  in1615 in016)))))  ( <  ( +  in137 ( +  in1413 ( +  in1514 ( +  in1615 in016)))) ( +  in147 ( +  in1514 ( +  in1615 in016)))))  ( <  ( +  in138 ( +  in1413 ( +  in1514 ( +  in1615 in016)))) ( +  in148 ( +  in1514 ( +  in1615 in016)))))  ( <  ( +  in139 ( +  in1413 ( +  in1514 ( +  in1615 in016)))) ( +  in149 ( +  in1514 ( +  in1615 in016)))))  ( <  ( +  in1310 ( +  in1413 ( +  in1514 ( +  in1615 in016)))) ( +  in1410 ( +  in1514 ( +  in1615 in016)))))  ( <  ( +  in1311 ( +  in1413 ( +  in1514 ( +  in1615 in016)))) ( +  in1411 ( +  in1514 ( +  in1615 in016)))))  ( <  ( +  in1312 ( +  in1413 ( +  in1514 ( +  in1615 in016)))) ( +  in1412 ( +  in1514 ( +  in1615 in016)))))  ( <  ( +  in132 ( +  in1413 ( +  in1514 ( +  in1615 in016)))) ( +  in131 ( +  in1413 ( +  in1514 ( +  in1615 in016))))))  ( <  ( +  in133 ( +  in1413 ( +  in1514 ( +  in1615 in016)))) ( +  in132 ( +  in1413 ( +  in1514 ( +  in1615 in016))))))  ( <  ( +  in134 ( +  in1413 ( +  in1514 ( +  in1615 in016)))) ( +  in133 ( +  in1413 ( +  in1514 ( +  in1615 in016))))))  ( <  ( +  in135 ( +  in1413 ( +  in1514 ( +  in1615 in016)))) ( +  in134 ( +  in1413 ( +  in1514 ( +  in1615 in016))))))  ( <  ( +  in136 ( +  in1413 ( +  in1514 ( +  in1615 in016)))) ( +  in135 ( +  in1413 ( +  in1514 ( +  in1615 in016))))))  ( <  ( +  in137 ( +  in1413 ( +  in1514 ( +  in1615 in016)))) ( +  in136 ( +  in1413 ( +  in1514 ( +  in1615 in016))))))  ( <  ( +  in138 ( +  in1413 ( +  in1514 ( +  in1615 in016)))) ( +  in137 ( +  in1413 ( +  in1514 ( +  in1615 in016))))))  ( <  ( +  in139 ( +  in1413 ( +  in1514 ( +  in1615 in016)))) ( +  in138 ( +  in1413 ( +  in1514 ( +  in1615 in016))))))  ( <  ( +  in1310 ( +  in1413 ( +  in1514 ( +  in1615 in016)))) ( +  in139 ( +  in1413 ( +  in1514 ( +  in1615 in016))))))  ( <  ( +  in1311 ( +  in1413 ( +  in1514 ( +  in1615 in016)))) ( +  in1310 ( +  in1413 ( +  in1514 ( +  in1615 in016))))))  ( <  ( +  in1312 ( +  in1413 ( +  in1514 ( +  in1615 in016)))) ( +  in1311 ( +  in1413 ( +  in1514 ( +  in1615 in016))))))  ( <  ( +  in121 ( +  in1312 ( +  in1413 ( +  in1514 ( +  in1615 in016))))) ( +  in131 ( +  in1413 ( +  in1514 ( +  in1615 in016))))))  ( <  ( +  in122 ( +  in1312 ( +  in1413 ( +  in1514 ( +  in1615 in016))))) ( +  in132 ( +  in1413 ( +  in1514 ( +  in1615 in016))))))  ( <  ( +  in123 ( +  in1312 ( +  in1413 ( +  in1514 ( +  in1615 in016))))) ( +  in133 ( +  in1413 ( +  in1514 ( +  in1615 in016))))))  ( <  ( +  in124 ( +  in1312 ( +  in1413 ( +  in1514 ( +  in1615 in016))))) ( +  in134 ( +  in1413 ( +  in1514 ( +  in1615 in016))))))  ( <  ( +  in125 ( +  in1312 ( +  in1413 ( +  in1514 ( +  in1615 in016))))) ( +  in135 ( +  in1413 ( +  in1514 ( +  in1615 in016))))))  ( <  ( +  in126 ( +  in1312 ( +  in1413 ( +  in1514 ( +  in1615 in016))))) ( +  in136 ( +  in1413 ( +  in1514 ( +  in1615 in016))))))  ( <  ( +  in127 ( +  in1312 ( +  in1413 ( +  in1514 ( +  in1615 in016))))) ( +  in137 ( +  in1413 ( +  in1514 ( +  in1615 in016))))))  ( <  ( +  in128 ( +  in1312 ( +  in1413 ( +  in1514 ( +  in1615 in016))))) ( +  in138 ( +  in1413 ( +  in1514 ( +  in1615 in016))))))  ( <  ( +  in129 ( +  in1312 ( +  in1413 ( +  in1514 ( +  in1615 in016))))) ( +  in139 ( +  in1413 ( +  in1514 ( +  in1615 in016))))))  ( <  ( +  in1210 ( +  in1312 ( +  in1413 ( +  in1514 ( +  in1615 in016))))) ( +  in1310 ( +  in1413 ( +  in1514 ( +  in1615 in016))))))  ( <  ( +  in1211 ( +  in1312 ( +  in1413 ( +  in1514 ( +  in1615 in016))))) ( +  in1311 ( +  in1413 ( +  in1514 ( +  in1615 in016))))))  ( <  ( +  in122 ( +  in1312 ( +  in1413 ( +  in1514 ( +  in1615 in016))))) ( +  in121 ( +  in1312 ( +  in1413 ( +  in1514 ( +  in1615 in016)))))))  ( <  ( +  in123 ( +  in1312 ( +  in1413 ( +  in1514 ( +  in1615 in016))))) ( +  in122 ( +  in1312 ( +  in1413 ( +  in1514 ( +  in1615 in016)))))))  ( <  ( +  in124 ( +  in1312 ( +  in1413 ( +  in1514 ( +  in1615 in016))))) ( +  in123 ( +  in1312 ( +  in1413 ( +  in1514 ( +  in1615 in016)))))))  ( <  ( +  in125 ( +  in1312 ( +  in1413 ( +  in1514 ( +  in1615 in016))))) ( +  in124 ( +  in1312 ( +  in1413 ( +  in1514 ( +  in1615 in016)))))))  ( <  ( +  in126 ( +  in1312 ( +  in1413 ( +  in1514 ( +  in1615 in016))))) ( +  in125 ( +  in1312 ( +  in1413 ( +  in1514 ( +  in1615 in016)))))))  ( <  ( +  in127 ( +  in1312 ( +  in1413 ( +  in1514 ( +  in1615 in016))))) ( +  in126 ( +  in1312 ( +  in1413 ( +  in1514 ( +  in1615 in016)))))))  ( <  ( +  in128 ( +  in1312 ( +  in1413 ( +  in1514 ( +  in1615 in016))))) ( +  in127 ( +  in1312 ( +  in1413 ( +  in1514 ( +  in1615 in016)))))))  ( <  ( +  in129 ( +  in1312 ( +  in1413 ( +  in1514 ( +  in1615 in016))))) ( +  in128 ( +  in1312 ( +  in1413 ( +  in1514 ( +  in1615 in016)))))))  ( <  ( +  in1210 ( +  in1312 ( +  in1413 ( +  in1514 ( +  in1615 in016))))) ( +  in129 ( +  in1312 ( +  in1413 ( +  in1514 ( +  in1615 in016)))))))  ( <  ( +  in1211 ( +  in1312 ( +  in1413 ( +  in1514 ( +  in1615 in016))))) ( +  in1210 ( +  in1312 ( +  in1413 ( +  in1514 ( +  in1615 in016)))))))  ( <  ( +  in111 ( +  in1211 ( +  in1312 ( +  in1413 ( +  in1514 ( +  in1615 in016)))))) ( +  in121 ( +  in1312 ( +  in1413 ( +  in1514 ( +  in1615 in016)))))))  ( <  ( +  in112 ( +  in1211 ( +  in1312 ( +  in1413 ( +  in1514 ( +  in1615 in016)))))) ( +  in122 ( +  in1312 ( +  in1413 ( +  in1514 ( +  in1615 in016)))))))  ( <  ( +  in113 ( +  in1211 ( +  in1312 ( +  in1413 ( +  in1514 ( +  in1615 in016)))))) ( +  in123 ( +  in1312 ( +  in1413 ( +  in1514 ( +  in1615 in016)))))))  ( <  ( +  in114 ( +  in1211 ( +  in1312 ( +  in1413 ( +  in1514 ( +  in1615 in016)))))) ( +  in124 ( +  in1312 ( +  in1413 ( +  in1514 ( +  in1615 in016)))))))  ( <  ( +  in115 ( +  in1211 ( +  in1312 ( +  in1413 ( +  in1514 ( +  in1615 in016)))))) ( +  in125 ( +  in1312 ( +  in1413 ( +  in1514 ( +  in1615 in016)))))))  ( <  ( +  in116 ( +  in1211 ( +  in1312 ( +  in1413 ( +  in1514 ( +  in1615 in016)))))) ( +  in126 ( +  in1312 ( +  in1413 ( +  in1514 ( +  in1615 in016)))))))  ( <  ( +  in117 ( +  in1211 ( +  in1312 ( +  in1413 ( +  in1514 ( +  in1615 in016)))))) ( +  in127 ( +  in1312 ( +  in1413 ( +  in1514 ( +  in1615 in016)))))))  ( <  ( +  in118 ( +  in1211 ( +  in1312 ( +  in1413 ( +  in1514 ( +  in1615 in016)))))) ( +  in128 ( +  in1312 ( +  in1413 ( +  in1514 ( +  in1615 in016)))))))  ( <  ( +  in119 ( +  in1211 ( +  in1312 ( +  in1413 ( +  in1514 ( +  in1615 in016)))))) ( +  in129 ( +  in1312 ( +  in1413 ( +  in1514 ( +  in1615 in016)))))))  ( <  ( +  in1110 ( +  in1211 ( +  in1312 ( +  in1413 ( +  in1514 ( +  in1615 in016)))))) ( +  in1210 ( +  in1312 ( +  in1413 ( +  in1514 ( +  in1615 in016)))))))  ( <  ( +  in112 ( +  in1211 ( +  in1312 ( +  in1413 ( +  in1514 ( +  in1615 in016)))))) ( +  in111 ( +  in1211 ( +  in1312 ( +  in1413 ( +  in1514 ( +  in1615 in016))))))))  ( <  ( +  in113 ( +  in1211 ( +  in1312 ( +  in1413 ( +  in1514 ( +  in1615 in016)))))) ( +  in112 ( +  in1211 ( +  in1312 ( +  in1413 ( +  in1514 ( +  in1615 in016))))))))  ( <  ( +  in114 ( +  in1211 ( +  in1312 ( +  in1413 ( +  in1514 ( +  in1615 in016)))))) ( +  in113 ( +  in1211 ( +  in1312 ( +  in1413 ( +  in1514 ( +  in1615 in016))))))))  ( <  ( +  in115 ( +  in1211 ( +  in1312 ( +  in1413 ( +  in1514 ( +  in1615 in016)))))) ( +  in114 ( +  in1211 ( +  in1312 ( +  in1413 ( +  in1514 ( +  in1615 in016))))))))  ( <  ( +  in116 ( +  in1211 ( +  in1312 ( +  in1413 ( +  in1514 ( +  in1615 in016)))))) ( +  in115 ( +  in1211 ( +  in1312 ( +  in1413 ( +  in1514 ( +  in1615 in016))))))))  ( <  ( +  in117 ( +  in1211 ( +  in1312 ( +  in1413 ( +  in1514 ( +  in1615 in016)))))) ( +  in116 ( +  in1211 ( +  in1312 ( +  in1413 ( +  in1514 ( +  in1615 in016))))))))  ( <  ( +  in118 ( +  in1211 ( +  in1312 ( +  in1413 ( +  in1514 ( +  in1615 in016)))))) ( +  in117 ( +  in1211 ( +  in1312 ( +  in1413 ( +  in1514 ( +  in1615 in016))))))))  ( <  ( +  in119 ( +  in1211 ( +  in1312 ( +  in1413 ( +  in1514 ( +  in1615 in016)))))) ( +  in118 ( +  in1211 ( +  in1312 ( +  in1413 ( +  in1514 ( +  in1615 in016))))))))  ( <  ( +  in1110 ( +  in1211 ( +  in1312 ( +  in1413 ( +  in1514 ( +  in1615 in016)))))) ( +  in119 ( +  in1211 ( +  in1312 ( +  in1413 ( +  in1514 ( +  in1615 in016))))))))  ( <  ( +  in101 ( +  in1110 ( +  in1211 ( +  in1312 ( +  in1413 ( +  in1514 ( +  in1615 in016))))))) ( +  in111 ( +  in1211 ( +  in1312 ( +  in1413 ( +  in1514 ( +  in1615 in016))))))))  ( <  ( +  in102 ( +  in1110 ( +  in1211 ( +  in1312 ( +  in1413 ( +  in1514 ( +  in1615 in016))))))) ( +  in112 ( +  in1211 ( +  in1312 ( +  in1413 ( +  in1514 ( +  in1615 in016))))))))  ( <  ( +  in103 ( +  in1110 ( +  in1211 ( +  in1312 ( +  in1413 ( +  in1514 ( +  in1615 in016))))))) ( +  in113 ( +  in1211 ( +  in1312 ( +  in1413 ( +  in1514 ( +  in1615 in016))))))))  ( <  ( +  in104 ( +  in1110 ( +  in1211 ( +  in1312 ( +  in1413 ( +  in1514 ( +  in1615 in016))))))) ( +  in114 ( +  in1211 ( +  in1312 ( +  in1413 ( +  in1514 ( +  in1615 in016))))))))  ( <  ( +  in105 ( +  in1110 ( +  in1211 ( +  in1312 ( +  in1413 ( +  in1514 ( +  in1615 in016))))))) ( +  in115 ( +  in1211 ( +  in1312 ( +  in1413 ( +  in1514 ( +  in1615 in016))))))))  ( <  ( +  in106 ( +  in1110 ( +  in1211 ( +  in1312 ( +  in1413 ( +  in1514 ( +  in1615 in016))))))) ( +  in116 ( +  in1211 ( +  in1312 ( +  in1413 ( +  in1514 ( +  in1615 in016))))))))  ( <  ( +  in107 ( +  in1110 ( +  in1211 ( +  in1312 ( +  in1413 ( +  in1514 ( +  in1615 in016))))))) ( +  in117 ( +  in1211 ( +  in1312 ( +  in1413 ( +  in1514 ( +  in1615 in016))))))))  ( <  ( +  in108 ( +  in1110 ( +  in1211 ( +  in1312 ( +  in1413 ( +  in1514 ( +  in1615 in016))))))) ( +  in118 ( +  in1211 ( +  in1312 ( +  in1413 ( +  in1514 ( +  in1615 in016))))))))  ( <  ( +  in109 ( +  in1110 ( +  in1211 ( +  in1312 ( +  in1413 ( +  in1514 ( +  in1615 in016))))))) ( +  in119 ( +  in1211 ( +  in1312 ( +  in1413 ( +  in1514 ( +  in1615 in016))))))))  ( <  ( +  in102 ( +  in1110 ( +  in1211 ( +  in1312 ( +  in1413 ( +  in1514 ( +  in1615 in016))))))) ( +  in101 ( +  in1110 ( +  in1211 ( +  in1312 ( +  in1413 ( +  in1514 ( +  in1615 in016)))))))))  ( <  ( +  in103 ( +  in1110 ( +  in1211 ( +  in1312 ( +  in1413 ( +  in1514 ( +  in1615 in016))))))) ( +  in102 ( +  in1110 ( +  in1211 ( +  in1312 ( +  in1413 ( +  in1514 ( +  in1615 in016)))))))))  ( <  ( +  in104 ( +  in1110 ( +  in1211 ( +  in1312 ( +  in1413 ( +  in1514 ( +  in1615 in016))))))) ( +  in103 ( +  in1110 ( +  in1211 ( +  in1312 ( +  in1413 ( +  in1514 ( +  in1615 in016)))))))))  ( <  ( +  in105 ( +  in1110 ( +  in1211 ( +  in1312 ( +  in1413 ( +  in1514 ( +  in1615 in016))))))) ( +  in104 ( +  in1110 ( +  in1211 ( +  in1312 ( +  in1413 ( +  in1514 ( +  in1615 in016)))))))))  ( <  ( +  in106 ( +  in1110 ( +  in1211 ( +  in1312 ( +  in1413 ( +  in1514 ( +  in1615 in016))))))) ( +  in105 ( +  in1110 ( +  in1211 ( +  in1312 ( +  in1413 ( +  in1514 ( +  in1615 in016)))))))))  ( <  ( +  in107 ( +  in1110 ( +  in1211 ( +  in1312 ( +  in1413 ( +  in1514 ( +  in1615 in016))))))) ( +  in106 ( +  in1110 ( +  in1211 ( +  in1312 ( +  in1413 ( +  in1514 ( +  in1615 in016)))))))))  ( <  ( +  in108 ( +  in1110 ( +  in1211 ( +  in1312 ( +  in1413 ( +  in1514 ( +  in1615 in016))))))) ( +  in107 ( +  in1110 ( +  in1211 ( +  in1312 ( +  in1413 ( +  in1514 ( +  in1615 in016)))))))))  ( <  ( +  in109 ( +  in1110 ( +  in1211 ( +  in1312 ( +  in1413 ( +  in1514 ( +  in1615 in016))))))) ( +  in108 ( +  in1110 ( +  in1211 ( +  in1312 ( +  in1413 ( +  in1514 ( +  in1615 in016)))))))))  ( <  ( +  in91 ( +  in109 ( +  in1110 ( +  in1211 ( +  in1312 ( +  in1413 ( +  in1514 ( +  in1615 in016)))))))) ( +  in101 ( +  in1110 ( +  in1211 ( +  in1312 ( +  in1413 ( +  in1514 ( +  in1615 in016)))))))))  ( <  ( +  in92 ( +  in109 ( +  in1110 ( +  in1211 ( +  in1312 ( +  in1413 ( +  in1514 ( +  in1615 in016)))))))) ( +  in102 ( +  in1110 ( +  in1211 ( +  in1312 ( +  in1413 ( +  in1514 ( +  in1615 in016)))))))))  ( <  ( +  in93 ( +  in109 ( +  in1110 ( +  in1211 ( +  in1312 ( +  in1413 ( +  in1514 ( +  in1615 in016)))))))) ( +  in103 ( +  in1110 ( +  in1211 ( +  in1312 ( +  in1413 ( +  in1514 ( +  in1615 in016)))))))))  ( <  ( +  in94 ( +  in109 ( +  in1110 ( +  in1211 ( +  in1312 ( +  in1413 ( +  in1514 ( +  in1615 in016)))))))) ( +  in104 ( +  in1110 ( +  in1211 ( +  in1312 ( +  in1413 ( +  in1514 ( +  in1615 in016)))))))))  ( <  ( +  in95 ( +  in109 ( +  in1110 ( +  in1211 ( +  in1312 ( +  in1413 ( +  in1514 ( +  in1615 in016)))))))) ( +  in105 ( +  in1110 ( +  in1211 ( +  in1312 ( +  in1413 ( +  in1514 ( +  in1615 in016)))))))))  ( <  ( +  in96 ( +  in109 ( +  in1110 ( +  in1211 ( +  in1312 ( +  in1413 ( +  in1514 ( +  in1615 in016)))))))) ( +  in106 ( +  in1110 ( +  in1211 ( +  in1312 ( +  in1413 ( +  in1514 ( +  in1615 in016)))))))))  ( <  ( +  in97 ( +  in109 ( +  in1110 ( +  in1211 ( +  in1312 ( +  in1413 ( +  in1514 ( +  in1615 in016)))))))) ( +  in107 ( +  in1110 ( +  in1211 ( +  in1312 ( +  in1413 ( +  in1514 ( +  in1615 in016)))))))))  ( <  ( +  in98 ( +  in109 ( +  in1110 ( +  in1211 ( +  in1312 ( +  in1413 ( +  in1514 ( +  in1615 in016)))))))) ( +  in108 ( +  in1110 ( +  in1211 ( +  in1312 ( +  in1413 ( +  in1514 ( +  in1615 in016)))))))))  ( <  ( +  in92 ( +  in109 ( +  in1110 ( +  in1211 ( +  in1312 ( +  in1413 ( +  in1514 ( +  in1615 in016)))))))) ( +  in91 ( +  in109 ( +  in1110 ( +  in1211 ( +  in1312 ( +  in1413 ( +  in1514 ( +  in1615 in016))))))))))  ( <  ( +  in93 ( +  in109 ( +  in1110 ( +  in1211 ( +  in1312 ( +  in1413 ( +  in1514 ( +  in1615 in016)))))))) ( +  in92 ( +  in109 ( +  in1110 ( +  in1211 ( +  in1312 ( +  in1413 ( +  in1514 ( +  in1615 in016))))))))))  ( <  ( +  in94 ( +  in109 ( +  in1110 ( +  in1211 ( +  in1312 ( +  in1413 ( +  in1514 ( +  in1615 in016)))))))) ( +  in93 ( +  in109 ( +  in1110 ( +  in1211 ( +  in1312 ( +  in1413 ( +  in1514 ( +  in1615 in016))))))))))  ( <  ( +  in95 ( +  in109 ( +  in1110 ( +  in1211 ( +  in1312 ( +  in1413 ( +  in1514 ( +  in1615 in016)))))))) ( +  in94 ( +  in109 ( +  in1110 ( +  in1211 ( +  in1312 ( +  in1413 ( +  in1514 ( +  in1615 in016))))))))))  ( <  ( +  in96 ( +  in109 ( +  in1110 ( +  in1211 ( +  in1312 ( +  in1413 ( +  in1514 ( +  in1615 in016)))))))) ( +  in95 ( +  in109 ( +  in1110 ( +  in1211 ( +  in1312 ( +  in1413 ( +  in1514 ( +  in1615 in016))))))))))  ( <  ( +  in97 ( +  in109 ( +  in1110 ( +  in1211 ( +  in1312 ( +  in1413 ( +  in1514 ( +  in1615 in016)))))))) ( +  in96 ( +  in109 ( +  in1110 ( +  in1211 ( +  in1312 ( +  in1413 ( +  in1514 ( +  in1615 in016))))))))))  ( <  ( +  in98 ( +  in109 ( +  in1110 ( +  in1211 ( +  in1312 ( +  in1413 ( +  in1514 ( +  in1615 in016)))))))) ( +  in97 ( +  in109 ( +  in1110 ( +  in1211 ( +  in1312 ( +  in1413 ( +  in1514 ( +  in1615 in016))))))))))  ( <  ( +  in81 ( +  in98 ( +  in109 ( +  in1110 ( +  in1211 ( +  in1312 ( +  in1413 ( +  in1514 ( +  in1615 in016))))))))) ( +  in91 ( +  in109 ( +  in1110 ( +  in1211 ( +  in1312 ( +  in1413 ( +  in1514 ( +  in1615 in016))))))))))  ( <  ( +  in82 ( +  in98 ( +  in109 ( +  in1110 ( +  in1211 ( +  in1312 ( +  in1413 ( +  in1514 ( +  in1615 in016))))))))) ( +  in92 ( +  in109 ( +  in1110 ( +  in1211 ( +  in1312 ( +  in1413 ( +  in1514 ( +  in1615 in016))))))))))  ( <  ( +  in83 ( +  in98 ( +  in109 ( +  in1110 ( +  in1211 ( +  in1312 ( +  in1413 ( +  in1514 ( +  in1615 in016))))))))) ( +  in93 ( +  in109 ( +  in1110 ( +  in1211 ( +  in1312 ( +  in1413 ( +  in1514 ( +  in1615 in016))))))))))  ( <  ( +  in84 ( +  in98 ( +  in109 ( +  in1110 ( +  in1211 ( +  in1312 ( +  in1413 ( +  in1514 ( +  in1615 in016))))))))) ( +  in94 ( +  in109 ( +  in1110 ( +  in1211 ( +  in1312 ( +  in1413 ( +  in1514 ( +  in1615 in016))))))))))  ( <  ( +  in85 ( +  in98 ( +  in109 ( +  in1110 ( +  in1211 ( +  in1312 ( +  in1413 ( +  in1514 ( +  in1615 in016))))))))) ( +  in95 ( +  in109 ( +  in1110 ( +  in1211 ( +  in1312 ( +  in1413 ( +  in1514 ( +  in1615 in016))))))))))  ( <  ( +  in86 ( +  in98 ( +  in109 ( +  in1110 ( +  in1211 ( +  in1312 ( +  in1413 ( +  in1514 ( +  in1615 in016))))))))) ( +  in96 ( +  in109 ( +  in1110 ( +  in1211 ( +  in1312 ( +  in1413 ( +  in1514 ( +  in1615 in016))))))))))  ( <  ( +  in87 ( +  in98 ( +  in109 ( +  in1110 ( +  in1211 ( +  in1312 ( +  in1413 ( +  in1514 ( +  in1615 in016))))))))) ( +  in97 ( +  in109 ( +  in1110 ( +  in1211 ( +  in1312 ( +  in1413 ( +  in1514 ( +  in1615 in016))))))))))  ( <  ( +  in82 ( +  in98 ( +  in109 ( +  in1110 ( +  in1211 ( +  in1312 ( +  in1413 ( +  in1514 ( +  in1615 in016))))))))) ( +  in81 ( +  in98 ( +  in109 ( +  in1110 ( +  in1211 ( +  in1312 ( +  in1413 ( +  in1514 ( +  in1615 in016)))))))))))  ( <  ( +  in83 ( +  in98 ( +  in109 ( +  in1110 ( +  in1211 ( +  in1312 ( +  in1413 ( +  in1514 ( +  in1615 in016))))))))) ( +  in82 ( +  in98 ( +  in109 ( +  in1110 ( +  in1211 ( +  in1312 ( +  in1413 ( +  in1514 ( +  in1615 in016)))))))))))  ( <  ( +  in84 ( +  in98 ( +  in109 ( +  in1110 ( +  in1211 ( +  in1312 ( +  in1413 ( +  in1514 ( +  in1615 in016))))))))) ( +  in83 ( +  in98 ( +  in109 ( +  in1110 ( +  in1211 ( +  in1312 ( +  in1413 ( +  in1514 ( +  in1615 in016)))))))))))  ( <  ( +  in85 ( +  in98 ( +  in109 ( +  in1110 ( +  in1211 ( +  in1312 ( +  in1413 ( +  in1514 ( +  in1615 in016))))))))) ( +  in84 ( +  in98 ( +  in109 ( +  in1110 ( +  in1211 ( +  in1312 ( +  in1413 ( +  in1514 ( +  in1615 in016)))))))))))  ( <  ( +  in86 ( +  in98 ( +  in109 ( +  in1110 ( +  in1211 ( +  in1312 ( +  in1413 ( +  in1514 ( +  in1615 in016))))))))) ( +  in85 ( +  in98 ( +  in109 ( +  in1110 ( +  in1211 ( +  in1312 ( +  in1413 ( +  in1514 ( +  in1615 in016)))))))))))  ( <  ( +  in87 ( +  in98 ( +  in109 ( +  in1110 ( +  in1211 ( +  in1312 ( +  in1413 ( +  in1514 ( +  in1615 in016))))))))) ( +  in86 ( +  in98 ( +  in109 ( +  in1110 ( +  in1211 ( +  in1312 ( +  in1413 ( +  in1514 ( +  in1615 in016)))))))))))  ( <  ( +  in71 ( +  in87 ( +  in98 ( +  in109 ( +  in1110 ( +  in1211 ( +  in1312 ( +  in1413 ( +  in1514 ( +  in1615 in016)))))))))) ( +  in81 ( +  in98 ( +  in109 ( +  in1110 ( +  in1211 ( +  in1312 ( +  in1413 ( +  in1514 ( +  in1615 in016)))))))))))  ( <  ( +  in72 ( +  in87 ( +  in98 ( +  in109 ( +  in1110 ( +  in1211 ( +  in1312 ( +  in1413 ( +  in1514 ( +  in1615 in016)))))))))) ( +  in82 ( +  in98 ( +  in109 ( +  in1110 ( +  in1211 ( +  in1312 ( +  in1413 ( +  in1514 ( +  in1615 in016)))))))))))  ( <  ( +  in73 ( +  in87 ( +  in98 ( +  in109 ( +  in1110 ( +  in1211 ( +  in1312 ( +  in1413 ( +  in1514 ( +  in1615 in016)))))))))) ( +  in83 ( +  in98 ( +  in109 ( +  in1110 ( +  in1211 ( +  in1312 ( +  in1413 ( +  in1514 ( +  in1615 in016)))))))))))  ( <  ( +  in74 ( +  in87 ( +  in98 ( +  in109 ( +  in1110 ( +  in1211 ( +  in1312 ( +  in1413 ( +  in1514 ( +  in1615 in016)))))))))) ( +  in84 ( +  in98 ( +  in109 ( +  in1110 ( +  in1211 ( +  in1312 ( +  in1413 ( +  in1514 ( +  in1615 in016)))))))))))  ( <  ( +  in75 ( +  in87 ( +  in98 ( +  in109 ( +  in1110 ( +  in1211 ( +  in1312 ( +  in1413 ( +  in1514 ( +  in1615 in016)))))))))) ( +  in85 ( +  in98 ( +  in109 ( +  in1110 ( +  in1211 ( +  in1312 ( +  in1413 ( +  in1514 ( +  in1615 in016)))))))))))  ( <  ( +  in76 ( +  in87 ( +  in98 ( +  in109 ( +  in1110 ( +  in1211 ( +  in1312 ( +  in1413 ( +  in1514 ( +  in1615 in016)))))))))) ( +  in86 ( +  in98 ( +  in109 ( +  in1110 ( +  in1211 ( +  in1312 ( +  in1413 ( +  in1514 ( +  in1615 in016)))))))))))  ( <  ( +  in72 ( +  in87 ( +  in98 ( +  in109 ( +  in1110 ( +  in1211 ( +  in1312 ( +  in1413 ( +  in1514 ( +  in1615 in016)))))))))) ( +  in71 ( +  in87 ( +  in98 ( +  in109 ( +  in1110 ( +  in1211 ( +  in1312 ( +  in1413 ( +  in1514 ( +  in1615 in016))))))))))))  ( <  ( +  in73 ( +  in87 ( +  in98 ( +  in109 ( +  in1110 ( +  in1211 ( +  in1312 ( +  in1413 ( +  in1514 ( +  in1615 in016)))))))))) ( +  in72 ( +  in87 ( +  in98 ( +  in109 ( +  in1110 ( +  in1211 ( +  in1312 ( +  in1413 ( +  in1514 ( +  in1615 in016))))))))))))  ( <  ( +  in74 ( +  in87 ( +  in98 ( +  in109 ( +  in1110 ( +  in1211 ( +  in1312 ( +  in1413 ( +  in1514 ( +  in1615 in016)))))))))) ( +  in73 ( +  in87 ( +  in98 ( +  in109 ( +  in1110 ( +  in1211 ( +  in1312 ( +  in1413 ( +  in1514 ( +  in1615 in016))))))))))))  ( <  ( +  in75 ( +  in87 ( +  in98 ( +  in109 ( +  in1110 ( +  in1211 ( +  in1312 ( +  in1413 ( +  in1514 ( +  in1615 in016)))))))))) ( +  in74 ( +  in87 ( +  in98 ( +  in109 ( +  in1110 ( +  in1211 ( +  in1312 ( +  in1413 ( +  in1514 ( +  in1615 in016))))))))))))  ( <  ( +  in76 ( +  in87 ( +  in98 ( +  in109 ( +  in1110 ( +  in1211 ( +  in1312 ( +  in1413 ( +  in1514 ( +  in1615 in016)))))))))) ( +  in75 ( +  in87 ( +  in98 ( +  in109 ( +  in1110 ( +  in1211 ( +  in1312 ( +  in1413 ( +  in1514 ( +  in1615 in016))))))))))))  ( <  ( +  in61 ( +  in76 ( +  in87 ( +  in98 ( +  in109 ( +  in1110 ( +  in1211 ( +  in1312 ( +  in1413 ( +  in1514 ( +  in1615 in016))))))))))) ( +  in71 ( +  in87 ( +  in98 ( +  in109 ( +  in1110 ( +  in1211 ( +  in1312 ( +  in1413 ( +  in1514 ( +  in1615 in016))))))))))))  ( <  ( +  in62 ( +  in76 ( +  in87 ( +  in98 ( +  in109 ( +  in1110 ( +  in1211 ( +  in1312 ( +  in1413 ( +  in1514 ( +  in1615 in016))))))))))) ( +  in72 ( +  in87 ( +  in98 ( +  in109 ( +  in1110 ( +  in1211 ( +  in1312 ( +  in1413 ( +  in1514 ( +  in1615 in016))))))))))))  ( <  ( +  in63 ( +  in76 ( +  in87 ( +  in98 ( +  in109 ( +  in1110 ( +  in1211 ( +  in1312 ( +  in1413 ( +  in1514 ( +  in1615 in016))))))))))) ( +  in73 ( +  in87 ( +  in98 ( +  in109 ( +  in1110 ( +  in1211 ( +  in1312 ( +  in1413 ( +  in1514 ( +  in1615 in016))))))))))))  ( <  ( +  in64 ( +  in76 ( +  in87 ( +  in98 ( +  in109 ( +  in1110 ( +  in1211 ( +  in1312 ( +  in1413 ( +  in1514 ( +  in1615 in016))))))))))) ( +  in74 ( +  in87 ( +  in98 ( +  in109 ( +  in1110 ( +  in1211 ( +  in1312 ( +  in1413 ( +  in1514 ( +  in1615 in016))))))))))))  ( <  ( +  in65 ( +  in76 ( +  in87 ( +  in98 ( +  in109 ( +  in1110 ( +  in1211 ( +  in1312 ( +  in1413 ( +  in1514 ( +  in1615 in016))))))))))) ( +  in75 ( +  in87 ( +  in98 ( +  in109 ( +  in1110 ( +  in1211 ( +  in1312 ( +  in1413 ( +  in1514 ( +  in1615 in016))))))))))))  ( <  ( +  in62 ( +  in76 ( +  in87 ( +  in98 ( +  in109 ( +  in1110 ( +  in1211 ( +  in1312 ( +  in1413 ( +  in1514 ( +  in1615 in016))))))))))) ( +  in61 ( +  in76 ( +  in87 ( +  in98 ( +  in109 ( +  in1110 ( +  in1211 ( +  in1312 ( +  in1413 ( +  in1514 ( +  in1615 in016)))))))))))))  ( <  ( +  in63 ( +  in76 ( +  in87 ( +  in98 ( +  in109 ( +  in1110 ( +  in1211 ( +  in1312 ( +  in1413 ( +  in1514 ( +  in1615 in016))))))))))) ( +  in62 ( +  in76 ( +  in87 ( +  in98 ( +  in109 ( +  in1110 ( +  in1211 ( +  in1312 ( +  in1413 ( +  in1514 ( +  in1615 in016)))))))))))))  ( <  ( +  in64 ( +  in76 ( +  in87 ( +  in98 ( +  in109 ( +  in1110 ( +  in1211 ( +  in1312 ( +  in1413 ( +  in1514 ( +  in1615 in016))))))))))) ( +  in63 ( +  in76 ( +  in87 ( +  in98 ( +  in109 ( +  in1110 ( +  in1211 ( +  in1312 ( +  in1413 ( +  in1514 ( +  in1615 in016)))))))))))))  ( <  ( +  in65 ( +  in76 ( +  in87 ( +  in98 ( +  in109 ( +  in1110 ( +  in1211 ( +  in1312 ( +  in1413 ( +  in1514 ( +  in1615 in016))))))))))) ( +  in64 ( +  in76 ( +  in87 ( +  in98 ( +  in109 ( +  in1110 ( +  in1211 ( +  in1312 ( +  in1413 ( +  in1514 ( +  in1615 in016)))))))))))))  ( <  ( +  in51 ( +  in65 ( +  in76 ( +  in87 ( +  in98 ( +  in109 ( +  in1110 ( +  in1211 ( +  in1312 ( +  in1413 ( +  in1514 ( +  in1615 in016)))))))))))) ( +  in61 ( +  in76 ( +  in87 ( +  in98 ( +  in109 ( +  in1110 ( +  in1211 ( +  in1312 ( +  in1413 ( +  in1514 ( +  in1615 in016)))))))))))))  ( <  ( +  in52 ( +  in65 ( +  in76 ( +  in87 ( +  in98 ( +  in109 ( +  in1110 ( +  in1211 ( +  in1312 ( +  in1413 ( +  in1514 ( +  in1615 in016)))))))))))) ( +  in62 ( +  in76 ( +  in87 ( +  in98 ( +  in109 ( +  in1110 ( +  in1211 ( +  in1312 ( +  in1413 ( +  in1514 ( +  in1615 in016)))))))))))))  ( <  ( +  in53 ( +  in65 ( +  in76 ( +  in87 ( +  in98 ( +  in109 ( +  in1110 ( +  in1211 ( +  in1312 ( +  in1413 ( +  in1514 ( +  in1615 in016)))))))))))) ( +  in63 ( +  in76 ( +  in87 ( +  in98 ( +  in109 ( +  in1110 ( +  in1211 ( +  in1312 ( +  in1413 ( +  in1514 ( +  in1615 in016)))))))))))))  ( <  ( +  in54 ( +  in65 ( +  in76 ( +  in87 ( +  in98 ( +  in109 ( +  in1110 ( +  in1211 ( +  in1312 ( +  in1413 ( +  in1514 ( +  in1615 in016)))))))))))) ( +  in64 ( +  in76 ( +  in87 ( +  in98 ( +  in109 ( +  in1110 ( +  in1211 ( +  in1312 ( +  in1413 ( +  in1514 ( +  in1615 in016)))))))))))))  ( <  ( +  in52 ( +  in65 ( +  in76 ( +  in87 ( +  in98 ( +  in109 ( +  in1110 ( +  in1211 ( +  in1312 ( +  in1413 ( +  in1514 ( +  in1615 in016)))))))))))) ( +  in51 ( +  in65 ( +  in76 ( +  in87 ( +  in98 ( +  in109 ( +  in1110 ( +  in1211 ( +  in1312 ( +  in1413 ( +  in1514 ( +  in1615 in016))))))))))))))  ( <  ( +  in53 ( +  in65 ( +  in76 ( +  in87 ( +  in98 ( +  in109 ( +  in1110 ( +  in1211 ( +  in1312 ( +  in1413 ( +  in1514 ( +  in1615 in016)))))))))))) ( +  in52 ( +  in65 ( +  in76 ( +  in87 ( +  in98 ( +  in109 ( +  in1110 ( +  in1211 ( +  in1312 ( +  in1413 ( +  in1514 ( +  in1615 in016))))))))))))))  ( <  ( +  in54 ( +  in65 ( +  in76 ( +  in87 ( +  in98 ( +  in109 ( +  in1110 ( +  in1211 ( +  in1312 ( +  in1413 ( +  in1514 ( +  in1615 in016)))))))))))) ( +  in53 ( +  in65 ( +  in76 ( +  in87 ( +  in98 ( +  in109 ( +  in1110 ( +  in1211 ( +  in1312 ( +  in1413 ( +  in1514 ( +  in1615 in016))))))))))))))  ( <  ( +  in41 ( +  in54 ( +  in65 ( +  in76 ( +  in87 ( +  in98 ( +  in109 ( +  in1110 ( +  in1211 ( +  in1312 ( +  in1413 ( +  in1514 ( +  in1615 in016))))))))))))) ( +  in51 ( +  in65 ( +  in76 ( +  in87 ( +  in98 ( +  in109 ( +  in1110 ( +  in1211 ( +  in1312 ( +  in1413 ( +  in1514 ( +  in1615 in016))))))))))))))  ( <  ( +  in42 ( +  in54 ( +  in65 ( +  in76 ( +  in87 ( +  in98 ( +  in109 ( +  in1110 ( +  in1211 ( +  in1312 ( +  in1413 ( +  in1514 ( +  in1615 in016))))))))))))) ( +  in52 ( +  in65 ( +  in76 ( +  in87 ( +  in98 ( +  in109 ( +  in1110 ( +  in1211 ( +  in1312 ( +  in1413 ( +  in1514 ( +  in1615 in016))))))))))))))  ( <  ( +  in43 ( +  in54 ( +  in65 ( +  in76 ( +  in87 ( +  in98 ( +  in109 ( +  in1110 ( +  in1211 ( +  in1312 ( +  in1413 ( +  in1514 ( +  in1615 in016))))))))))))) ( +  in53 ( +  in65 ( +  in76 ( +  in87 ( +  in98 ( +  in109 ( +  in1110 ( +  in1211 ( +  in1312 ( +  in1413 ( +  in1514 ( +  in1615 in016))))))))))))))  ( <  ( +  in42 ( +  in54 ( +  in65 ( +  in76 ( +  in87 ( +  in98 ( +  in109 ( +  in1110 ( +  in1211 ( +  in1312 ( +  in1413 ( +  in1514 ( +  in1615 in016))))))))))))) ( +  in41 ( +  in54 ( +  in65 ( +  in76 ( +  in87 ( +  in98 ( +  in109 ( +  in1110 ( +  in1211 ( +  in1312 ( +  in1413 ( +  in1514 ( +  in1615 in016)))))))))))))))  ( <  ( +  in43 ( +  in54 ( +  in65 ( +  in76 ( +  in87 ( +  in98 ( +  in109 ( +  in1110 ( +  in1211 ( +  in1312 ( +  in1413 ( +  in1514 ( +  in1615 in016))))))))))))) ( +  in42 ( +  in54 ( +  in65 ( +  in76 ( +  in87 ( +  in98 ( +  in109 ( +  in1110 ( +  in1211 ( +  in1312 ( +  in1413 ( +  in1514 ( +  in1615 in016)))))))))))))))  ( <  ( +  in31 ( +  in43 ( +  in54 ( +  in65 ( +  in76 ( +  in87 ( +  in98 ( +  in109 ( +  in1110 ( +  in1211 ( +  in1312 ( +  in1413 ( +  in1514 ( +  in1615 in016)))))))))))))) ( +  in41 ( +  in54 ( +  in65 ( +  in76 ( +  in87 ( +  in98 ( +  in109 ( +  in1110 ( +  in1211 ( +  in1312 ( +  in1413 ( +  in1514 ( +  in1615 in016)))))))))))))))  ( <  ( +  in32 ( +  in43 ( +  in54 ( +  in65 ( +  in76 ( +  in87 ( +  in98 ( +  in109 ( +  in1110 ( +  in1211 ( +  in1312 ( +  in1413 ( +  in1514 ( +  in1615 in016)))))))))))))) ( +  in42 ( +  in54 ( +  in65 ( +  in76 ( +  in87 ( +  in98 ( +  in109 ( +  in1110 ( +  in1211 ( +  in1312 ( +  in1413 ( +  in1514 ( +  in1615 in016)))))))))))))))  ( <  ( +  in32 ( +  in43 ( +  in54 ( +  in65 ( +  in76 ( +  in87 ( +  in98 ( +  in109 ( +  in1110 ( +  in1211 ( +  in1312 ( +  in1413 ( +  in1514 ( +  in1615 in016)))))))))))))) ( +  in31 ( +  in43 ( +  in54 ( +  in65 ( +  in76 ( +  in87 ( +  in98 ( +  in109 ( +  in1110 ( +  in1211 ( +  in1312 ( +  in1413 ( +  in1514 ( +  in1615 in016))))))))))))))))  ( <  ( +  in21 ( +  in32 ( +  in43 ( +  in54 ( +  in65 ( +  in76 ( +  in87 ( +  in98 ( +  in109 ( +  in1110 ( +  in1211 ( +  in1312 ( +  in1413 ( +  in1514 ( +  in1615 in016))))))))))))))) ( +  in31 ( +  in43 ( +  in54 ( +  in65 ( +  in76 ( +  in87 ( +  in98 ( +  in109 ( +  in1110 ( +  in1211 ( +  in1312 ( +  in1413 ( +  in1514 ( +  in1615 in016)))))))))))))))))

(check-sat)
(get-model)